1
1000
96
266 1
267 1
269 2
270 3
271 4
273 2
274 1
275 4
276 3
278 4
279 4
280 5
281 2
283 4
284 1
287 2
288 1
289 4
290 2
292 1
293 1
294 2
295 3
297 1
299 2
301 3
302 2
303 1
304 3
305 3
306 1
307 1
308 2
310 2
311 1
313 3
314 1
316 2
317 5
318 3
319 2
320 2
321 4
322 4
323 1
324 1
325 3
326 1
327 2
329 1
330 3
331 1
333 1
334 1
335 1
336 2
338 2
339 3
340 1
341 1
342 2
343 4
344 1
345 2
348 3
349 1
350 1
351 1
352 2
353 2
354 2
356 2
359 4
360 2
361 2
363 2
365 1
366 1
368 1
370 4
375 4
378 3
379 1
381 1
382 2
383 3
384 2
385 2
386 1
387 1
388 1
389 1
392 3
394 2
395 2
396 1
